istances/mknap0.txt
2 1
 5 15 
 5 10 
 5