solutions/mknap0.log
Version identifier: 22.1.0.0 | 2022-03-09 | 1a383f8ce
CPXPARAM_Read_DataCheck                          1
CPXPARAM_Threads                                 1
CPXPARAM_MIP_Cuts_Cliques                        -1
CPXPARAM_MIP_Cuts_Covers                         -1
CPXPARAM_MIP_Cuts_FlowCovers                     -1
CPXPARAM_MIP_Cuts_Implied                        -1
CPXPARAM_MIP_Cuts_PathCut                        -1
CPXPARAM_MIP_Cuts_MIRCut                         -1
CPXPARAM_MIP_Cuts_ZeroHalfCut                    -1
CPXPARAM_MIP_Cuts_LiftProj                       -1
CPXPARAM_MIP_Strategy_HeuristicFreq              -1
Tried aggregator 1 time.
MIP Presolve eliminated 1 rows and 2 columns.
All rows and columns eliminated.
Presolve time = 0.00 sec. (0.00 ticks)

Root node processing (before b&c):
  Real time             =    0.00 sec. (0.00 ticks)
Sequential b&c:
  Real time             =    0.00 sec. (0.00 ticks)
                          ------------
Total (root+branch&cut) =    0.00 sec. (0.00 ticks)
